15 965
525 7 484 7 368 7 123 9 857 11 631 18
525 7 482 7 394 7 212 9 29 11 822 15 623 21
525 7 484 7 368 7 123 9 857 11 631 18
525 7 482 7 362 7 201 9 13 11 819 18
525 7 482 7 365 7 212 9 29 11 823 18
525 7 482 7 362 7 118 9 855 11 676 18
525 7 484 7 368 7 123 9 857 11 631 18
525 7 504 7 362 7 209 9 25 11 818 15 619 21
525 7 505 7 381 7 219 9 28 11 852 15 669 21
535 8 492 8 398 9 231 10 69 14 899 50
525 7 442 7 285 7 105 9 5 11 812 15 609 22
525 7 446 7 267 7 66 9 891 11 731 18
525 7 504 7 362 7 209 9 25 11 818 15 624 21
525 7 504 7 362 7 209 9 25 11 818 15 624 21
525 7 504 7 362 7 209 9 25 11 818 15 624 21
